c automorphism group size 8
p cnf 104 2716
1 2 3 4 5 6 7 8 9 10 11 12 13 14 15 16 17 18 19 20 21 22 23 24 25 26 0
27 28 29 30 31 32 33 34 35 36 37 38 39 40 41 42 43 44 45 46 47 48 49 50 51 52 0
53 54 55 56 57 58 59 60 61 62 63 64 65 66 67 68 69 70 71 72 73 74 75 76 77 78 0
79 80 81 82 83 84 85 86 87 88 89 90 91 92 93 94 95 96 97 98 99 100 101 102 103 104 0
-1 -2 0
-1 -3 0
-1 -4 0
-1 -5 0
-1 -6 0
-1 -7 0
-1 -8 0
-1 -9 0
-1 -10 0
-1 -11 0
-1 -12 0
-1 -13 0
-1 -14 0
-1 -15 0
-1 -16 0
-1 -17 0
-1 -18 0
-1 -19 0
-1 -20 0
-1 -21 0
-1 -22 0
-1 -23 0
-1 -24 0
-1 -25 0
-1 -26 0
-2 -3 0
-2 -4 0
-2 -5 0
-2 -6 0
-2 -7 0
-2 -8 0
-2 -9 0
-2 -10 0
-2 -11 0
-2 -12 0
-2 -13 0
-2 -14 0
-2 -15 0
-2 -16 0
-2 -17 0
-2 -18 0
-2 -19 0
-2 -20 0
-2 -21 0
-2 -22 0
-2 -23 0
-2 -24 0
-2 -25 0
-2 -26 0
-3 -4 0
-3 -5 0
-3 -6 0
-3 -7 0
-3 -8 0
-3 -9 0
-3 -10 0
-3 -11 0
-3 -12 0
-3 -13 0
-3 -14 0
-3 -15 0
-3 -16 0
-3 -17 0
-3 -18 0
-3 -19 0
-3 -20 0
-3 -21 0
-3 -22 0
-3 -23 0
-3 -24 0
-3 -25 0
-3 -26 0
-4 -5 0
-4 -6 0
-4 -7 0
-4 -8 0
-4 -9 0
-4 -10 0
-4 -11 0
-4 -12 0
-4 -13 0
-4 -14 0
-4 -15 0
-4 -16 0
-4 -17 0
-4 -18 0
-4 -19 0
-4 -20 0
-4 -21 0
-4 -22 0
-4 -23 0
-4 -24 0
-4 -25 0
-4 -26 0
-5 -6 0
-5 -7 0
-5 -8 0
-5 -9 0
-5 -10 0
-5 -11 0
-5 -12 0
-5 -13 0
-5 -14 0
-5 -15 0
-5 -16 0
-5 -17 0
-5 -18 0
-5 -19 0
-5 -20 0
-5 -21 0
-5 -22 0
-5 -23 0
-5 -24 0
-5 -25 0
-5 -26 0
-6 -7 0
-6 -8 0
-6 -9 0
-6 -10 0
-6 -11 0
-6 -12 0
-6 -13 0
-6 -14 0
-6 -15 0
-6 -16 0
-6 -17 0
-6 -18 0
-6 -19 0
-6 -20 0
-6 -21 0
-6 -22 0
-6 -23 0
-6 -24 0
-6 -25 0
-6 -26 0
-7 -8 0
-7 -9 0
-7 -10 0
-7 -11 0
-7 -12 0
-7 -13 0
-7 -14 0
-7 -15 0
-7 -16 0
-7 -17 0
-7 -18 0
-7 -19 0
-7 -20 0
-7 -21 0
-7 -22 0
-7 -23 0
-7 -24 0
-7 -25 0
-7 -26 0
-8 -9 0
-8 -10 0
-8 -11 0
-8 -12 0
-8 -13 0
-8 -14 0
-8 -15 0
-8 -16 0
-8 -17 0
-8 -18 0
-8 -19 0
-8 -20 0
-8 -21 0
-8 -22 0
-8 -23 0
-8 -24 0
-8 -25 0
-8 -26 0
-9 -10 0
-9 -11 0
-9 -12 0
-9 -13 0
-9 -14 0
-9 -15 0
-9 -16 0
-9 -17 0
-9 -18 0
-9 -19 0
-9 -20 0
-9 -21 0
-9 -22 0
-9 -23 0
-9 -24 0
-9 -25 0
-9 -26 0
-10 -11 0
-10 -12 0
-10 -13 0
-10 -14 0
-10 -15 0
-10 -16 0
-10 -17 0
-10 -18 0
-10 -19 0
-10 -20 0
-10 -21 0
-10 -22 0
-10 -23 0
-10 -24 0
-10 -25 0
-10 -26 0
-11 -12 0
-11 -13 0
-11 -14 0
-11 -15 0
-11 -16 0
-11 -17 0
-11 -18 0
-11 -19 0
-11 -20 0
-11 -21 0
-11 -22 0
-11 -23 0
-11 -24 0
-11 -25 0
-11 -26 0
-12 -13 0
-12 -14 0
-12 -15 0
-12 -16 0
-12 -17 0
-12 -18 0
-12 -19 0
-12 -20 0
-12 -21 0
-12 -22 0
-12 -23 0
-12 -24 0
-12 -25 0
-12 -26 0
-13 -14 0
-13 -15 0
-13 -16 0
-13 -17 0
-13 -18 0
-13 -19 0
-13 -20 0
-13 -21 0
-13 -22 0
-13 -23 0
-13 -24 0
-13 -25 0
-13 -26 0
-14 -15 0
-14 -16 0
-14 -17 0
-14 -18 0
-14 -19 0
-14 -20 0
-14 -21 0
-14 -22 0
-14 -23 0
-14 -24 0
-14 -25 0
-14 -26 0
-15 -16 0
-15 -17 0
-15 -18 0
-15 -19 0
-15 -20 0
-15 -21 0
-15 -22 0
-15 -23 0
-15 -24 0
-15 -25 0
-15 -26 0
-16 -17 0
-16 -18 0
-16 -19 0
-16 -20 0
-16 -21 0
-16 -22 0
-16 -23 0
-16 -24 0
-16 -25 0
-16 -26 0
-17 -18 0
-17 -19 0
-17 -20 0
-17 -21 0
-17 -22 0
-17 -23 0
-17 -24 0
-17 -25 0
-17 -26 0
-18 -19 0
-18 -20 0
-18 -21 0
-18 -22 0
-18 -23 0
-18 -24 0
-18 -25 0
-18 -26 0
-19 -20 0
-19 -21 0
-19 -22 0
-19 -23 0
-19 -24 0
-19 -25 0
-19 -26 0
-20 -21 0
-20 -22 0
-20 -23 0
-20 -24 0
-20 -25 0
-20 -26 0
-21 -22 0
-21 -23 0
-21 -24 0
-21 -25 0
-21 -26 0
-22 -23 0
-22 -24 0
-22 -25 0
-22 -26 0
-23 -24 0
-23 -25 0
-23 -26 0
-24 -25 0
-24 -26 0
-25 -26 0
-27 -28 0
-27 -29 0
-27 -30 0
-27 -31 0
-27 -32 0
-27 -33 0
-27 -34 0
-27 -35 0
-27 -36 0
-27 -37 0
-27 -38 0
-27 -39 0
-27 -40 0
-27 -41 0
-27 -42 0
-27 -43 0
-27 -44 0
-27 -45 0
-27 -46 0
-27 -47 0
-27 -48 0
-27 -49 0
-27 -50 0
-27 -51 0
-27 -52 0
-28 -29 0
-28 -30 0
-28 -31 0
-28 -32 0
-28 -33 0
-28 -34 0
-28 -35 0
-28 -36 0
-28 -37 0
-28 -38 0
-28 -39 0
-28 -40 0
-28 -41 0
-28 -42 0
-28 -43 0
-28 -44 0
-28 -45 0
-28 -46 0
-28 -47 0
-28 -48 0
-28 -49 0
-28 -50 0
-28 -51 0
-28 -52 0
-29 -30 0
-29 -31 0
-29 -32 0
-29 -33 0
-29 -34 0
-29 -35 0
-29 -36 0
-29 -37 0
-29 -38 0
-29 -39 0
-29 -40 0
-29 -41 0
-29 -42 0
-29 -43 0
-29 -44 0
-29 -45 0
-29 -46 0
-29 -47 0
-29 -48 0
-29 -49 0
-29 -50 0
-29 -51 0
-29 -52 0
-30 -31 0
-30 -32 0
-30 -33 0
-30 -34 0
-30 -35 0
-30 -36 0
-30 -37 0
-30 -38 0
-30 -39 0
-30 -40 0
-30 -41 0
-30 -42 0
-30 -43 0
-30 -44 0
-30 -45 0
-30 -46 0
-30 -47 0
-30 -48 0
-30 -49 0
-30 -50 0
-30 -51 0
-30 -52 0
-31 -32 0
-31 -33 0
-31 -34 0
-31 -35 0
-31 -36 0
-31 -37 0
-31 -38 0
-31 -39 0
-31 -40 0
-31 -41 0
-31 -42 0
-31 -43 0
-31 -44 0
-31 -45 0
-31 -46 0
-31 -47 0
-31 -48 0
-31 -49 0
-31 -50 0
-31 -51 0
-31 -52 0
-32 -33 0
-32 -34 0
-32 -35 0
-32 -36 0
-32 -37 0
-32 -38 0
-32 -39 0
-32 -40 0
-32 -41 0
-32 -42 0
-32 -43 0
-32 -44 0
-32 -45 0
-32 -46 0
-32 -47 0
-32 -48 0
-32 -49 0
-32 -50 0
-32 -51 0
-32 -52 0
-33 -34 0
-33 -35 0
-33 -36 0
-33 -37 0
-33 -38 0
-33 -39 0
-33 -40 0
-33 -41 0
-33 -42 0
-33 -43 0
-33 -44 0
-33 -45 0
-33 -46 0
-33 -47 0
-33 -48 0
-33 -49 0
-33 -50 0
-33 -51 0
-33 -52 0
-34 -35 0
-34 -36 0
-34 -37 0
-34 -38 0
-34 -39 0
-34 -40 0
-34 -41 0
-34 -42 0
-34 -43 0
-34 -44 0
-34 -45 0
-34 -46 0
-34 -47 0
-34 -48 0
-34 -49 0
-34 -50 0
-34 -51 0
-34 -52 0
-35 -36 0
-35 -37 0
-35 -38 0
-35 -39 0
-35 -40 0
-35 -41 0
-35 -42 0
-35 -43 0
-35 -44 0
-35 -45 0
-35 -46 0
-35 -47 0
-35 -48 0
-35 -49 0
-35 -50 0
-35 -51 0
-35 -52 0
-36 -37 0
-36 -38 0
-36 -39 0
-36 -40 0
-36 -41 0
-36 -42 0
-36 -43 0
-36 -44 0
-36 -45 0
-36 -46 0
-36 -47 0
-36 -48 0
-36 -49 0
-36 -50 0
-36 -51 0
-36 -52 0
-37 -38 0
-37 -39 0
-37 -40 0
-37 -41 0
-37 -42 0
-37 -43 0
-37 -44 0
-37 -45 0
-37 -46 0
-37 -47 0
-37 -48 0
-37 -49 0
-37 -50 0
-37 -51 0
-37 -52 0
-38 -39 0
-38 -40 0
-38 -41 0
-38 -42 0
-38 -43 0
-38 -44 0
-38 -45 0
-38 -46 0
-38 -47 0
-38 -48 0
-38 -49 0
-38 -50 0
-38 -51 0
-38 -52 0
-39 -40 0
-39 -41 0
-39 -42 0
-39 -43 0
-39 -44 0
-39 -45 0
-39 -46 0
-39 -47 0
-39 -48 0
-39 -49 0
-39 -50 0
-39 -51 0
-39 -52 0
-40 -41 0
-40 -42 0
-40 -43 0
-40 -44 0
-40 -45 0
-40 -46 0
-40 -47 0
-40 -48 0
-40 -49 0
-40 -50 0
-40 -51 0
-40 -52 0
-41 -42 0
-41 -43 0
-41 -44 0
-41 -45 0
-41 -46 0
-41 -47 0
-41 -48 0
-41 -49 0
-41 -50 0
-41 -51 0
-41 -52 0
-42 -43 0
-42 -44 0
-42 -45 0
-42 -46 0
-42 -47 0
-42 -48 0
-42 -49 0
-42 -50 0
-42 -51 0
-42 -52 0
-43 -44 0
-43 -45 0
-43 -46 0
-43 -47 0
-43 -48 0
-43 -49 0
-43 -50 0
-43 -51 0
-43 -52 0
-44 -45 0
-44 -46 0
-44 -47 0
-44 -48 0
-44 -49 0
-44 -50 0
-44 -51 0
-44 -52 0
-45 -46 0
-45 -47 0
-45 -48 0
-45 -49 0
-45 -50 0
-45 -51 0
-45 -52 0
-46 -47 0
-46 -48 0
-46 -49 0
-46 -50 0
-46 -51 0
-46 -52 0
-47 -48 0
-47 -49 0
-47 -50 0
-47 -51 0
-47 -52 0
-48 -49 0
-48 -50 0
-48 -51 0
-48 -52 0
-49 -50 0
-49 -51 0
-49 -52 0
-50 -51 0
-50 -52 0
-51 -52 0
-53 -54 0
-53 -55 0
-53 -56 0
-53 -57 0
-53 -58 0
-53 -59 0
-53 -60 0
-53 -61 0
-53 -62 0
-53 -63 0
-53 -64 0
-53 -65 0
-53 -66 0
-53 -67 0
-53 -68 0
-53 -69 0
-53 -70 0
-53 -71 0
-53 -72 0
-53 -73 0
-53 -74 0
-53 -75 0
-53 -76 0
-53 -77 0
-53 -78 0
-54 -55 0
-54 -56 0
-54 -57 0
-54 -58 0
-54 -59 0
-54 -60 0
-54 -61 0
-54 -62 0
-54 -63 0
-54 -64 0
-54 -65 0
-54 -66 0
-54 -67 0
-54 -68 0
-54 -69 0
-54 -70 0
-54 -71 0
-54 -72 0
-54 -73 0
-54 -74 0
-54 -75 0
-54 -76 0
-54 -77 0
-54 -78 0
-55 -56 0
-55 -57 0
-55 -58 0
-55 -59 0
-55 -60 0
-55 -61 0
-55 -62 0
-55 -63 0
-55 -64 0
-55 -65 0
-55 -66 0
-55 -67 0
-55 -68 0
-55 -69 0
-55 -70 0
-55 -71 0
-55 -72 0
-55 -73 0
-55 -74 0
-55 -75 0
-55 -76 0
-55 -77 0
-55 -78 0
-56 -57 0
-56 -58 0
-56 -59 0
-56 -60 0
-56 -61 0
-56 -62 0
-56 -63 0
-56 -64 0
-56 -65 0
-56 -66 0
-56 -67 0
-56 -68 0
-56 -69 0
-56 -70 0
-56 -71 0
-56 -72 0
-56 -73 0
-56 -74 0
-56 -75 0
-56 -76 0
-56 -77 0
-56 -78 0
-57 -58 0
-57 -59 0
-57 -60 0
-57 -61 0
-57 -62 0
-57 -63 0
-57 -64 0
-57 -65 0
-57 -66 0
-57 -67 0
-57 -68 0
-57 -69 0
-57 -70 0
-57 -71 0
-57 -72 0
-57 -73 0
-57 -74 0
-57 -75 0
-57 -76 0
-57 -77 0
-57 -78 0
-58 -59 0
-58 -60 0
-58 -61 0
-58 -62 0
-58 -63 0
-58 -64 0
-58 -65 0
-58 -66 0
-58 -67 0
-58 -68 0
-58 -69 0
-58 -70 0
-58 -71 0
-58 -72 0
-58 -73 0
-58 -74 0
-58 -75 0
-58 -76 0
-58 -77 0
-58 -78 0
-59 -60 0
-59 -61 0
-59 -62 0
-59 -63 0
-59 -64 0
-59 -65 0
-59 -66 0
-59 -67 0
-59 -68 0
-59 -69 0
-59 -70 0
-59 -71 0
-59 -72 0
-59 -73 0
-59 -74 0
-59 -75 0
-59 -76 0
-59 -77 0
-59 -78 0
-60 -61 0
-60 -62 0
-60 -63 0
-60 -64 0
-60 -65 0
-60 -66 0
-60 -67 0
-60 -68 0
-60 -69 0
-60 -70 0
-60 -71 0
-60 -72 0
-60 -73 0
-60 -74 0
-60 -75 0
-60 -76 0
-60 -77 0
-60 -78 0
-61 -62 0
-61 -63 0
-61 -64 0
-61 -65 0
-61 -66 0
-61 -67 0
-61 -68 0
-61 -69 0
-61 -70 0
-61 -71 0
-61 -72 0
-61 -73 0
-61 -74 0
-61 -75 0
-61 -76 0
-61 -77 0
-61 -78 0
-62 -63 0
-62 -64 0
-62 -65 0
-62 -66 0
-62 -67 0
-62 -68 0
-62 -69 0
-62 -70 0
-62 -71 0
-62 -72 0
-62 -73 0
-62 -74 0
-62 -75 0
-62 -76 0
-62 -77 0
-62 -78 0
-63 -64 0
-63 -65 0
-63 -66 0
-63 -67 0
-63 -68 0
-63 -69 0
-63 -70 0
-63 -71 0
-63 -72 0
-63 -73 0
-63 -74 0
-63 -75 0
-63 -76 0
-63 -77 0
-63 -78 0
-64 -65 0
-64 -66 0
-64 -67 0
-64 -68 0
-64 -69 0
-64 -70 0
-64 -71 0
-64 -72 0
-64 -73 0
-64 -74 0
-64 -75 0
-64 -76 0
-64 -77 0
-64 -78 0
-65 -66 0
-65 -67 0
-65 -68 0
-65 -69 0
-65 -70 0
-65 -71 0
-65 -72 0
-65 -73 0
-65 -74 0
-65 -75 0
-65 -76 0
-65 -77 0
-65 -78 0
-66 -67 0
-66 -68 0
-66 -69 0
-66 -70 0
-66 -71 0
-66 -72 0
-66 -73 0
-66 -74 0
-66 -75 0
-66 -76 0
-66 -77 0
-66 -78 0
-67 -68 0
-67 -69 0
-67 -70 0
-67 -71 0
-67 -72 0
-67 -73 0
-67 -74 0
-67 -75 0
-67 -76 0
-67 -77 0
-67 -78 0
-68 -69 0
-68 -70 0
-68 -71 0
-68 -72 0
-68 -73 0
-68 -74 0
-68 -75 0
-68 -76 0
-68 -77 0
-68 -78 0
-69 -70 0
-69 -71 0
-69 -72 0
-69 -73 0
-69 -74 0
-69 -75 0
-69 -76 0
-69 -77 0
-69 -78 0
-70 -71 0
-70 -72 0
-70 -73 0
-70 -74 0
-70 -75 0
-70 -76 0
-70 -77 0
-70 -78 0
-71 -72 0
-71 -73 0
-71 -74 0
-71 -75 0
-71 -76 0
-71 -77 0
-71 -78 0
-72 -73 0
-72 -74 0
-72 -75 0
-72 -76 0
-72 -77 0
-72 -78 0
-73 -74 0
-73 -75 0
-73 -76 0
-73 -77 0
-73 -78 0
-74 -75 0
-74 -76 0
-74 -77 0
-74 -78 0
-75 -76 0
-75 -77 0
-75 -78 0
-76 -77 0
-76 -78 0
-77 -78 0
-79 -80 0
-79 -81 0
-79 -82 0
-79 -83 0
-79 -84 0
-79 -85 0
-79 -86 0
-79 -87 0
-79 -88 0
-79 -89 0
-79 -90 0
-79 -91 0
-79 -92 0
-79 -93 0
-79 -94 0
-79 -95 0
-79 -96 0
-79 -97 0
-79 -98 0
-79 -99 0
-79 -100 0
-79 -101 0
-79 -102 0
-79 -103 0
-79 -104 0
-80 -81 0
-80 -82 0
-80 -83 0
-80 -84 0
-80 -85 0
-80 -86 0
-80 -87 0
-80 -88 0
-80 -89 0
-80 -90 0
-80 -91 0
-80 -92 0
-80 -93 0
-80 -94 0
-80 -95 0
-80 -96 0
-80 -97 0
-80 -98 0
-80 -99 0
-80 -100 0
-80 -101 0
-80 -102 0
-80 -103 0
-80 -104 0
-81 -82 0
-81 -83 0
-81 -84 0
-81 -85 0
-81 -86 0
-81 -87 0
-81 -88 0
-81 -89 0
-81 -90 0
-81 -91 0
-81 -92 0
-81 -93 0
-81 -94 0
-81 -95 0
-81 -96 0
-81 -97 0
-81 -98 0
-81 -99 0
-81 -100 0
-81 -101 0
-81 -102 0
-81 -103 0
-81 -104 0
-82 -83 0
-82 -84 0
-82 -85 0
-82 -86 0
-82 -87 0
-82 -88 0
-82 -89 0
-82 -90 0
-82 -91 0
-82 -92 0
-82 -93 0
-82 -94 0
-82 -95 0
-82 -96 0
-82 -97 0
-82 -98 0
-82 -99 0
-82 -100 0
-82 -101 0
-82 -102 0
-82 -103 0
-82 -104 0
-83 -84 0
-83 -85 0
-83 -86 0
-83 -87 0
-83 -88 0
-83 -89 0
-83 -90 0
-83 -91 0
-83 -92 0
-83 -93 0
-83 -94 0
-83 -95 0
-83 -96 0
-83 -97 0
-83 -98 0
-83 -99 0
-83 -100 0
-83 -101 0
-83 -102 0
-83 -103 0
-83 -104 0
-84 -85 0
-84 -86 0
-84 -87 0
-84 -88 0
-84 -89 0
-84 -90 0
-84 -91 0
-84 -92 0
-84 -93 0
-84 -94 0
-84 -95 0
-84 -96 0
-84 -97 0
-84 -98 0
-84 -99 0
-84 -100 0
-84 -101 0
-84 -102 0
-84 -103 0
-84 -104 0
-85 -86 0
-85 -87 0
-85 -88 0
-85 -89 0
-85 -90 0
-85 -91 0
-85 -92 0
-85 -93 0
-85 -94 0
-85 -95 0
-85 -96 0
-85 -97 0
-85 -98 0
-85 -99 0
-85 -100 0
-85 -101 0
-85 -102 0
-85 -103 0
-85 -104 0
-86 -87 0
-86 -88 0
-86 -89 0
-86 -90 0
-86 -91 0
-86 -92 0
-86 -93 0
-86 -94 0
-86 -95 0
-86 -96 0
-86 -97 0
-86 -98 0
-86 -99 0
-86 -100 0
-86 -101 0
-86 -102 0
-86 -103 0
-86 -104 0
-87 -88 0
-87 -89 0
-87 -90 0
-87 -91 0
-87 -92 0
-87 -93 0
-87 -94 0
-87 -95 0
-87 -96 0
-87 -97 0
-87 -98 0
-87 -99 0
-87 -100 0
-87 -101 0
-87 -102 0
-87 -103 0
-87 -104 0
-88 -89 0
-88 -90 0
-88 -91 0
-88 -92 0
-88 -93 0
-88 -94 0
-88 -95 0
-88 -96 0
-88 -97 0
-88 -98 0
-88 -99 0
-88 -100 0
-88 -101 0
-88 -102 0
-88 -103 0
-88 -104 0
-89 -90 0
-89 -91 0
-89 -92 0
-89 -93 0
-89 -94 0
-89 -95 0
-89 -96 0
-89 -97 0
-89 -98 0
-89 -99 0
-89 -100 0
-89 -101 0
-89 -102 0
-89 -103 0
-89 -104 0
-90 -91 0
-90 -92 0
-90 -93 0
-90 -94 0
-90 -95 0
-90 -96 0
-90 -97 0
-90 -98 0
-90 -99 0
-90 -100 0
-90 -101 0
-90 -102 0
-90 -103 0
-90 -104 0
-91 -92 0
-91 -93 0
-91 -94 0
-91 -95 0
-91 -96 0
-91 -97 0
-91 -98 0
-91 -99 0
-91 -100 0
-91 -101 0
-91 -102 0
-91 -103 0
-91 -104 0
-92 -93 0
-92 -94 0
-92 -95 0
-92 -96 0
-92 -97 0
-92 -98 0
-92 -99 0
-92 -100 0
-92 -101 0
-92 -102 0
-92 -103 0
-92 -104 0
-93 -94 0
-93 -95 0
-93 -96 0
-93 -97 0
-93 -98 0
-93 -99 0
-93 -100 0
-93 -101 0
-93 -102 0
-93 -103 0
-93 -104 0
-94 -95 0
-94 -96 0
-94 -97 0
-94 -98 0
-94 -99 0
-94 -100 0
-94 -101 0
-94 -102 0
-94 -103 0
-94 -104 0
-95 -96 0
-95 -97 0
-95 -98 0
-95 -99 0
-95 -100 0
-95 -101 0
-95 -102 0
-95 -103 0
-95 -104 0
-96 -97 0
-96 -98 0
-96 -99 0
-96 -100 0
-96 -101 0
-96 -102 0
-96 -103 0
-96 -104 0
-97 -98 0
-97 -99 0
-97 -100 0
-97 -101 0
-97 -102 0
-97 -103 0
-97 -104 0
-98 -99 0
-98 -100 0
-98 -101 0
-98 -102 0
-98 -103 0
-98 -104 0
-99 -100 0
-99 -101 0
-99 -102 0
-99 -103 0
-99 -104 0
-100 -101 0
-100 -102 0
-100 -103 0
-100 -104 0
-101 -102 0
-101 -103 0
-101 -104 0
-102 -103 0
-102 -104 0
-103 -104 0
-1 -27 0
-1 -27 0
-1 -28 0
-2 -27 0
-1 -35 0
-9 -27 0
-1 -36 0
-10 -27 0
-1 -37 0
-11 -27 0
-1 -39 0
-13 -27 0
-1 -41 0
-15 -27 0
-1 -46 0
-20 -27 0
-1 -48 0
-22 -27 0
-1 -49 0
-23 -27 0
-1 -50 0
-24 -27 0
-1 -51 0
-25 -27 0
-2 -28 0
-2 -28 0
-2 -34 0
-8 -28 0
-2 -36 0
-10 -28 0
-2 -37 0
-11 -28 0
-2 -40 0
-14 -28 0
-2 -42 0
-16 -28 0
-2 -43 0
-17 -28 0
-2 -47 0
-21 -28 0
-2 -50 0
-24 -28 0
-2 -51 0
-25 -28 0
-2 -52 0
-26 -28 0
-3 -29 0
-3 -29 0
-3 -34 0
-8 -29 0
-3 -35 0
-9 -29 0
-3 -37 0
-11 -29 0
-3 -38 0
-12 -29 0
-3 -44 0
-18 -29 0
-3 -45 0
-19 -29 0
-3 -47 0
-21 -29 0
-3 -48 0
-22 -29 0
-3 -49 0
-23 -29 0
-3 -52 0
-26 -29 0
-4 -30 0
-4 -30 0
-4 -33 0
-7 -30 0
-4 -35 0
-9 -30 0
-4 -39 0
-13 -30 0
-4 -40 0
-14 -30 0
-4 -41 0
-15 -30 0
-4 -43 0
-17 -30 0
-4 -44 0
-18 -30 0
-4 -46 0
-20 -30 0
-4 -47 0
-21 -30 0
-4 -52 0
-26 -30 0
-5 -31 0
-5 -31 0
-5 -33 0
-7 -31 0
-5 -36 0
-10 -31 0
-5 -38 0
-12 -31 0
-5 -40 0
-14 -31 0
-5 -42 0
-16 -31 0
-5 -43 0
-17 -31 0
-5 -45 0
-19 -31 0
-5 -46 0
-20 -31 0
-5 -48 0
-22 -31 0
-5 -49 0
-23 -31 0
-6 -32 0
-6 -32 0
-6 -33 0
-7 -32 0
-6 -34 0
-8 -32 0
-6 -38 0
-12 -32 0
-6 -39 0
-13 -32 0
-6 -41 0
-15 -32 0
-6 -42 0
-16 -32 0
-6 -44 0
-18 -32 0
-6 -45 0
-19 -32 0
-6 -50 0
-24 -32 0
-6 -51 0
-25 -32 0
-7 -33 0
-7 -33 0
-7 -37 0
-11 -33 0
-7 -42 0
-16 -33 0
-7 -44 0
-18 -33 0
-7 -46 0
-20 -33 0
-7 -47 0
-21 -33 0
-7 -49 0
-23 -33 0
-7 -51 0
-25 -33 0
-8 -34 0
-8 -34 0
-8 -35 0
-9 -34 0
-8 -36 0
-10 -34 0
-8 -38 0
-12 -34 0
-8 -43 0
-17 -34 0
-8 -44 0
-18 -34 0
-8 -46 0
-20 -34 0
-8 -51 0
-25 -34 0
-9 -35 0
-9 -35 0
-9 -36 0
-10 -35 0
-9 -39 0
-13 -35 0
-9 -42 0
-16 -35 0
-9 -45 0
-19 -35 0
-9 -46 0
-20 -35 0
-9 -47 0
-21 -35 0
-10 -36 0
-10 -36 0
-10 -40 0
-14 -36 0
-10 -41 0
-15 -36 0
-10 -42 0
-16 -36 0
-10 -44 0
-18 -36 0
-10 -49 0
-23 -36 0
-11 -37 0
-11 -37 0
-11 -42 0
-16 -37 0
-11 -44 0
-18 -37 0
-11 -46 0
-20 -37 0
-11 -48 0
-22 -37 0
-11 -50 0
-24 -37 0
-11 -52 0
-26 -37 0
-12 -38 0
-12 -38 0
-12 -39 0
-13 -38 0
-12 -40 0
-14 -38 0
-12 -46 0
-20 -38 0
-12 -49 0
-23 -38 0
-12 -50 0
-24 -38 0
-12 -52 0
-26 -38 0
-13 -39 0
-13 -39 0
-13 -40 0
-14 -39 0
-13 -42 0
-16 -39 0
-13 -48 0
-22 -39 0
-13 -51 0
-25 -39 0
-13 -52 0
-26 -39 0
-14 -40 0
-14 -40 0
-14 -44 0
-18 -40 0
-14 -47 0
-21 -40 0
-14 -48 0
-22 -40 0
-14 -50 0
-24 -40 0
-15 -41 0
-15 -41 0
-15 -43 0
-17 -41 0
-15 -44 0
-18 -41 0
-15 -45 0
-19 -41 0
-15 -49 0
-23 -41 0
-15 -50 0
-24 -41 0
-15 -52 0
-26 -41 0
-16 -42 0
-16 -42 0
-16 -45 0
-19 -42 0
-16 -52 0
-26 -42 0
-17 -43 0
-17 -43 0
-17 -45 0
-19 -43 0
-17 -46 0
-20 -43 0
-17 -48 0
-22 -43 0
-17 -51 0
-25 -43 0
-17 -52 0
-26 -43 0
-18 -44 0
-18 -44 0
-18 -48 0
-22 -44 0
-19 -45 0
-19 -45 0
-19 -47 0
-21 -45 0
-19 -48 0
-22 -45 0
-19 -50 0
-24 -45 0
-20 -46 0
-20 -46 0
-20 -50 0
-24 -46 0
-21 -47 0
-21 -47 0
-21 -49 0
-23 -47 0
-21 -50 0
-24 -47 0
-21 -51 0
-25 -47 0
-22 -48 0
-22 -48 0
-22 -51 0
-25 -48 0
-23 -49 0
-23 -49 0
-23 -51 0
-25 -49 0
-23 -52 0
-26 -49 0
-24 -50 0
-24 -50 0
-25 -51 0
-25 -51 0
-26 -52 0
-26 -52 0
-27 -53 0
-27 -53 0
-27 -54 0
-28 -53 0
-27 -61 0
-35 -53 0
-27 -62 0
-36 -53 0
-27 -63 0
-37 -53 0
-27 -65 0
-39 -53 0
-27 -67 0
-41 -53 0
-27 -72 0
-46 -53 0
-27 -74 0
-48 -53 0
-27 -75 0
-49 -53 0
-27 -76 0
-50 -53 0
-27 -77 0
-51 -53 0
-28 -54 0
-28 -54 0
-28 -60 0
-34 -54 0
-28 -62 0
-36 -54 0
-28 -63 0
-37 -54 0
-28 -66 0
-40 -54 0
-28 -68 0
-42 -54 0
-28 -69 0
-43 -54 0
-28 -73 0
-47 -54 0
-28 -76 0
-50 -54 0
-28 -77 0
-51 -54 0
-28 -78 0
-52 -54 0
-29 -55 0
-29 -55 0
-29 -60 0
-34 -55 0
-29 -61 0
-35 -55 0
-29 -63 0
-37 -55 0
-29 -64 0
-38 -55 0
-29 -70 0
-44 -55 0
-29 -71 0
-45 -55 0
-29 -73 0
-47 -55 0
-29 -74 0
-48 -55 0
-29 -75 0
-49 -55 0
-29 -78 0
-52 -55 0
-30 -56 0
-30 -56 0
-30 -59 0
-33 -56 0
-30 -61 0
-35 -56 0
-30 -65 0
-39 -56 0
-30 -66 0
-40 -56 0
-30 -67 0
-41 -56 0
-30 -69 0
-43 -56 0
-30 -70 0
-44 -56 0
-30 -72 0
-46 -56 0
-30 -73 0
-47 -56 0
-30 -78 0
-52 -56 0
-31 -57 0
-31 -57 0
-31 -59 0
-33 -57 0
-31 -62 0
-36 -57 0
-31 -64 0
-38 -57 0
-31 -66 0
-40 -57 0
-31 -68 0
-42 -57 0
-31 -69 0
-43 -57 0
-31 -71 0
-45 -57 0
-31 -72 0
-46 -57 0
-31 -74 0
-48 -57 0
-31 -75 0
-49 -57 0
-32 -58 0
-32 -58 0
-32 -59 0
-33 -58 0
-32 -60 0
-34 -58 0
-32 -64 0
-38 -58 0
-32 -65 0
-39 -58 0
-32 -67 0
-41 -58 0
-32 -68 0
-42 -58 0
-32 -70 0
-44 -58 0
-32 -71 0
-45 -58 0
-32 -76 0
-50 -58 0
-32 -77 0
-51 -58 0
-33 -59 0
-33 -59 0
-33 -63 0
-37 -59 0
-33 -68 0
-42 -59 0
-33 -70 0
-44 -59 0
-33 -72 0
-46 -59 0
-33 -73 0
-47 -59 0
-33 -75 0
-49 -59 0
-33 -77 0
-51 -59 0
-34 -60 0
-34 -60 0
-34 -61 0
-35 -60 0
-34 -62 0
-36 -60 0
-34 -64 0
-38 -60 0
-34 -69 0
-43 -60 0
-34 -70 0
-44 -60 0
-34 -72 0
-46 -60 0
-34 -77 0
-51 -60 0
-35 -61 0
-35 -61 0
-35 -62 0
-36 -61 0
-35 -65 0
-39 -61 0
-35 -68 0
-42 -61 0
-35 -71 0
-45 -61 0
-35 -72 0
-46 -61 0
-35 -73 0
-47 -61 0
-36 -62 0
-36 -62 0
-36 -66 0
-40 -62 0
-36 -67 0
-41 -62 0
-36 -68 0
-42 -62 0
-36 -70 0
-44 -62 0
-36 -75 0
-49 -62 0
-37 -63 0
-37 -63 0
-37 -68 0
-42 -63 0
-37 -70 0
-44 -63 0
-37 -72 0
-46 -63 0
-37 -74 0
-48 -63 0
-37 -76 0
-50 -63 0
-37 -78 0
-52 -63 0
-38 -64 0
-38 -64 0
-38 -65 0
-39 -64 0
-38 -66 0
-40 -64 0
-38 -72 0
-46 -64 0
-38 -75 0
-49 -64 0
-38 -76 0
-50 -64 0
-38 -78 0
-52 -64 0
-39 -65 0
-39 -65 0
-39 -66 0
-40 -65 0
-39 -68 0
-42 -65 0
-39 -74 0
-48 -65 0
-39 -77 0
-51 -65 0
-39 -78 0
-52 -65 0
-40 -66 0
-40 -66 0
-40 -70 0
-44 -66 0
-40 -73 0
-47 -66 0
-40 -74 0
-48 -66 0
-40 -76 0
-50 -66 0
-41 -67 0
-41 -67 0
-41 -69 0
-43 -67 0
-41 -70 0
-44 -67 0
-41 -71 0
-45 -67 0
-41 -75 0
-49 -67 0
-41 -76 0
-50 -67 0
-41 -78 0
-52 -67 0
-42 -68 0
-42 -68 0
-42 -71 0
-45 -68 0
-42 -78 0
-52 -68 0
-43 -69 0
-43 -69 0
-43 -71 0
-45 -69 0
-43 -72 0
-46 -69 0
-43 -74 0
-48 -69 0
-43 -77 0
-51 -69 0
-43 -78 0
-52 -69 0
-44 -70 0
-44 -70 0
-44 -74 0
-48 -70 0
-45 -71 0
-45 -71 0
-45 -73 0
-47 -71 0
-45 -74 0
-48 -71 0
-45 -76 0
-50 -71 0
-46 -72 0
-46 -72 0
-46 -76 0
-50 -72 0
-47 -73 0
-47 -73 0
-47 -75 0
-49 -73 0
-47 -76 0
-50 -73 0
-47 -77 0
-51 -73 0
-48 -74 0
-48 -74 0
-48 -77 0
-51 -74 0
-49 -75 0
-49 -75 0
-49 -77 0
-51 -75 0
-49 -78 0
-52 -75 0
-50 -76 0
-50 -76 0
-51 -77 0
-51 -77 0
-52 -78 0
-52 -78 0
-53 -79 0
-53 -79 0
-53 -80 0
-54 -79 0
-53 -87 0
-61 -79 0
-53 -88 0
-62 -79 0
-53 -89 0
-63 -79 0
-53 -91 0
-65 -79 0
-53 -93 0
-67 -79 0
-53 -98 0
-72 -79 0
-53 -100 0
-74 -79 0
-53 -101 0
-75 -79 0
-53 -102 0
-76 -79 0
-53 -103 0
-77 -79 0
-54 -80 0
-54 -80 0
-54 -86 0
-60 -80 0
-54 -88 0
-62 -80 0
-54 -89 0
-63 -80 0
-54 -92 0
-66 -80 0
-54 -94 0
-68 -80 0
-54 -95 0
-69 -80 0
-54 -99 0
-73 -80 0
-54 -102 0
-76 -80 0
-54 -103 0
-77 -80 0
-54 -104 0
-78 -80 0
-55 -81 0
-55 -81 0
-55 -86 0
-60 -81 0
-55 -87 0
-61 -81 0
-55 -89 0
-63 -81 0
-55 -90 0
-64 -81 0
-55 -96 0
-70 -81 0
-55 -97 0
-71 -81 0
-55 -99 0
-73 -81 0
-55 -100 0
-74 -81 0
-55 -101 0
-75 -81 0
-55 -104 0
-78 -81 0
-56 -82 0
-56 -82 0
-56 -85 0
-59 -82 0
-56 -87 0
-61 -82 0
-56 -91 0
-65 -82 0
-56 -92 0
-66 -82 0
-56 -93 0
-67 -82 0
-56 -95 0
-69 -82 0
-56 -96 0
-70 -82 0
-56 -98 0
-72 -82 0
-56 -99 0
-73 -82 0
-56 -104 0
-78 -82 0
-57 -83 0
-57 -83 0
-57 -85 0
-59 -83 0
-57 -88 0
-62 -83 0
-57 -90 0
-64 -83 0
-57 -92 0
-66 -83 0
-57 -94 0
-68 -83 0
-57 -95 0
-69 -83 0
-57 -97 0
-71 -83 0
-57 -98 0
-72 -83 0
-57 -100 0
-74 -83 0
-57 -101 0
-75 -83 0
-58 -84 0
-58 -84 0
-58 -85 0
-59 -84 0
-58 -86 0
-60 -84 0
-58 -90 0
-64 -84 0
-58 -91 0
-65 -84 0
-58 -93 0
-67 -84 0
-58 -94 0
-68 -84 0
-58 -96 0
-70 -84 0
-58 -97 0
-71 -84 0
-58 -102 0
-76 -84 0
-58 -103 0
-77 -84 0
-59 -85 0
-59 -85 0
-59 -89 0
-63 -85 0
-59 -94 0
-68 -85 0
-59 -96 0
-70 -85 0
-59 -98 0
-72 -85 0
-59 -99 0
-73 -85 0
-59 -101 0
-75 -85 0
-59 -103 0
-77 -85 0
-60 -86 0
-60 -86 0
-60 -87 0
-61 -86 0
-60 -88 0
-62 -86 0
-60 -90 0
-64 -86 0
-60 -95 0
-69 -86 0
-60 -96 0
-70 -86 0
-60 -98 0
-72 -86 0
-60 -103 0
-77 -86 0
-61 -87 0
-61 -87 0
-61 -88 0
-62 -87 0
-61 -91 0
-65 -87 0
-61 -94 0
-68 -87 0
-61 -97 0
-71 -87 0
-61 -98 0
-72 -87 0
-61 -99 0
-73 -87 0
-62 -88 0
-62 -88 0
-62 -92 0
-66 -88 0
-62 -93 0
-67 -88 0
-62 -94 0
-68 -88 0
-62 -96 0
-70 -88 0
-62 -101 0
-75 -88 0
-63 -89 0
-63 -89 0
-63 -94 0
-68 -89 0
-63 -96 0
-70 -89 0
-63 -98 0
-72 -89 0
-63 -100 0
-74 -89 0
-63 -102 0
-76 -89 0
-63 -104 0
-78 -89 0
-64 -90 0
-64 -90 0
-64 -91 0
-65 -90 0
-64 -92 0
-66 -90 0
-64 -98 0
-72 -90 0
-64 -101 0
-75 -90 0
-64 -102 0
-76 -90 0
-64 -104 0
-78 -90 0
-65 -91 0
-65 -91 0
-65 -92 0
-66 -91 0
-65 -94 0
-68 -91 0
-65 -100 0
-74 -91 0
-65 -103 0
-77 -91 0
-65 -104 0
-78 -91 0
-66 -92 0
-66 -92 0
-66 -96 0
-70 -92 0
-66 -99 0
-73 -92 0
-66 -100 0
-74 -92 0
-66 -102 0
-76 -92 0
-67 -93 0
-67 -93 0
-67 -95 0
-69 -93 0
-67 -96 0
-70 -93 0
-67 -97 0
-71 -93 0
-67 -101 0
-75 -93 0
-67 -102 0
-76 -93 0
-67 -104 0
-78 -93 0
-68 -94 0
-68 -94 0
-68 -97 0
-71 -94 0
-68 -104 0
-78 -94 0
-69 -95 0
-69 -95 0
-69 -97 0
-71 -95 0
-69 -98 0
-72 -95 0
-69 -100 0
-74 -95 0
-69 -103 0
-77 -95 0
-69 -104 0
-78 -95 0
-70 -96 0
-70 -96 0
-70 -100 0
-74 -96 0
-71 -97 0
-71 -97 0
-71 -99 0
-73 -97 0
-71 -100 0
-74 -97 0
-71 -102 0
-76 -97 0
-72 -98 0
-72 -98 0
-72 -102 0
-76 -98 0
-73 -99 0
-73 -99 0
-73 -101 0
-75 -99 0
-73 -102 0
-76 -99 0
-73 -103 0
-77 -99 0
-74 -100 0
-74 -100 0
-74 -103 0
-77 -100 0
-75 -101 0
-75 -101 0
-75 -103 0
-77 -101 0
-75 -104 0
-78 -101 0
-76 -102 0
-76 -102 0
-77 -103 0
-77 -103 0
-78 -104 0
-78 -104 0
-1 -79 0
-1 -79 0
-1 -80 0
-2 -79 0
-1 -87 0
-9 -79 0
-1 -88 0
-10 -79 0
-1 -89 0
-11 -79 0
-1 -91 0
-13 -79 0
-1 -93 0
-15 -79 0
-1 -98 0
-20 -79 0
-1 -100 0
-22 -79 0
-1 -101 0
-23 -79 0
-1 -102 0
-24 -79 0
-1 -103 0
-25 -79 0
-2 -80 0
-2 -80 0
-2 -86 0
-8 -80 0
-2 -88 0
-10 -80 0
-2 -89 0
-11 -80 0
-2 -92 0
-14 -80 0
-2 -94 0
-16 -80 0
-2 -95 0
-17 -80 0
-2 -99 0
-21 -80 0
-2 -102 0
-24 -80 0
-2 -103 0
-25 -80 0
-2 -104 0
-26 -80 0
-3 -81 0
-3 -81 0
-3 -86 0
-8 -81 0
-3 -87 0
-9 -81 0
-3 -89 0
-11 -81 0
-3 -90 0
-12 -81 0
-3 -96 0
-18 -81 0
-3 -97 0
-19 -81 0
-3 -99 0
-21 -81 0
-3 -100 0
-22 -81 0
-3 -101 0
-23 -81 0
-3 -104 0
-26 -81 0
-4 -82 0
-4 -82 0
-4 -85 0
-7 -82 0
-4 -87 0
-9 -82 0
-4 -91 0
-13 -82 0
-4 -92 0
-14 -82 0
-4 -93 0
-15 -82 0
-4 -95 0
-17 -82 0
-4 -96 0
-18 -82 0
-4 -98 0
-20 -82 0
-4 -99 0
-21 -82 0
-4 -104 0
-26 -82 0
-5 -83 0
-5 -83 0
-5 -85 0
-7 -83 0
-5 -88 0
-10 -83 0
-5 -90 0
-12 -83 0
-5 -92 0
-14 -83 0
-5 -94 0
-16 -83 0
-5 -95 0
-17 -83 0
-5 -97 0
-19 -83 0
-5 -98 0
-20 -83 0
-5 -100 0
-22 -83 0
-5 -101 0
-23 -83 0
-6 -84 0
-6 -84 0
-6 -85 0
-7 -84 0
-6 -86 0
-8 -84 0
-6 -90 0
-12 -84 0
-6 -91 0
-13 -84 0
-6 -93 0
-15 -84 0
-6 -94 0
-16 -84 0
-6 -96 0
-18 -84 0
-6 -97 0
-19 -84 0
-6 -102 0
-24 -84 0
-6 -103 0
-25 -84 0
-7 -85 0
-7 -85 0
-7 -89 0
-11 -85 0
-7 -94 0
-16 -85 0
-7 -96 0
-18 -85 0
-7 -98 0
-20 -85 0
-7 -99 0
-21 -85 0
-7 -101 0
-23 -85 0
-7 -103 0
-25 -85 0
-8 -86 0
-8 -86 0
-8 -87 0
-9 -86 0
-8 -88 0
-10 -86 0
-8 -90 0
-12 -86 0
-8 -95 0
-17 -86 0
-8 -96 0
-18 -86 0
-8 -98 0
-20 -86 0
-8 -103 0
-25 -86 0
-9 -87 0
-9 -87 0
-9 -88 0
-10 -87 0
-9 -91 0
-13 -87 0
-9 -94 0
-16 -87 0
-9 -97 0
-19 -87 0
-9 -98 0
-20 -87 0
-9 -99 0
-21 -87 0
-10 -88 0
-10 -88 0
-10 -92 0
-14 -88 0
-10 -93 0
-15 -88 0
-10 -94 0
-16 -88 0
-10 -96 0
-18 -88 0
-10 -101 0
-23 -88 0
-11 -89 0
-11 -89 0
-11 -94 0
-16 -89 0
-11 -96 0
-18 -89 0
-11 -98 0
-20 -89 0
-11 -100 0
-22 -89 0
-11 -102 0
-24 -89 0
-11 -104 0
-26 -89 0
-12 -90 0
-12 -90 0
-12 -91 0
-13 -90 0
-12 -92 0
-14 -90 0
-12 -98 0
-20 -90 0
-12 -101 0
-23 -90 0
-12 -102 0
-24 -90 0
-12 -104 0
-26 -90 0
-13 -91 0
-13 -91 0
-13 -92 0
-14 -91 0
-13 -94 0
-16 -91 0
-13 -100 0
-22 -91 0
-13 -103 0
-25 -91 0
-13 -104 0
-26 -91 0
-14 -92 0
-14 -92 0
-14 -96 0
-18 -92 0
-14 -99 0
-21 -92 0
-14 -100 0
-22 -92 0
-14 -102 0
-24 -92 0
-15 -93 0
-15 -93 0
-15 -95 0
-17 -93 0
-15 -96 0
-18 -93 0
-15 -97 0
-19 -93 0
-15 -101 0
-23 -93 0
-15 -102 0
-24 -93 0
-15 -104 0
-26 -93 0
-16 -94 0
-16 -94 0
-16 -97 0
-19 -94 0
-16 -104 0
-26 -94 0
-17 -95 0
-17 -95 0
-17 -97 0
-19 -95 0
-17 -98 0
-20 -95 0
-17 -100 0
-22 -95 0
-17 -103 0
-25 -95 0
-17 -104 0
-26 -95 0
-18 -96 0
-18 -96 0
-18 -100 0
-22 -96 0
-19 -97 0
-19 -97 0
-19 -99 0
-21 -97 0
-19 -100 0
-22 -97 0
-19 -102 0
-24 -97 0
-20 -98 0
-20 -98 0
-20 -102 0
-24 -98 0
-21 -99 0
-21 -99 0
-21 -101 0
-23 -99 0
-21 -102 0
-24 -99 0
-21 -103 0
-25 -99 0
-22 -100 0
-22 -100 0
-22 -103 0
-25 -100 0
-23 -101 0
-23 -101 0
-23 -103 0
-25 -101 0
-23 -104 0
-26 -101 0
-24 -102 0
-24 -102 0
-25 -103 0
-25 -103 0
-26 -104 0
-26 -104 0
-1 -27 0
-1 -53 0
-1 -79 0
-27 -53 0
-27 -79 0
-53 -79 0
-2 -28 0
-2 -54 0
-2 -80 0
-28 -54 0
-28 -80 0
-54 -80 0
-3 -29 0
-3 -55 0
-3 -81 0
-29 -55 0
-29 -81 0
-55 -81 0
-4 -30 0
-4 -56 0
-4 -82 0
-30 -56 0
-30 -82 0
-56 -82 0
-5 -31 0
-5 -57 0
-5 -83 0
-31 -57 0
-31 -83 0
-57 -83 0
-6 -32 0
-6 -58 0
-6 -84 0
-32 -58 0
-32 -84 0
-58 -84 0
-7 -33 0
-7 -59 0
-7 -85 0
-33 -59 0
-33 -85 0
-59 -85 0
-8 -34 0
-8 -60 0
-8 -86 0
-34 -60 0
-34 -86 0
-60 -86 0
-9 -35 0
-9 -61 0
-9 -87 0
-35 -61 0
-35 -87 0
-61 -87 0
-10 -36 0
-10 -62 0
-10 -88 0
-36 -62 0
-36 -88 0
-62 -88 0
-11 -37 0
-11 -63 0
-11 -89 0
-37 -63 0
-37 -89 0
-63 -89 0
-12 -38 0
-12 -64 0
-12 -90 0
-38 -64 0
-38 -90 0
-64 -90 0
-13 -39 0
-13 -65 0
-13 -91 0
-39 -65 0
-39 -91 0
-65 -91 0
-14 -40 0
-14 -66 0
-14 -92 0
-40 -66 0
-40 -92 0
-66 -92 0
-15 -41 0
-15 -67 0
-15 -93 0
-41 -67 0
-41 -93 0
-67 -93 0
-16 -42 0
-16 -68 0
-16 -94 0
-42 -68 0
-42 -94 0
-68 -94 0
-17 -43 0
-17 -69 0
-17 -95 0
-43 -69 0
-43 -95 0
-69 -95 0
-18 -44 0
-18 -70 0
-18 -96 0
-44 -70 0
-44 -96 0
-70 -96 0
-19 -45 0
-19 -71 0
-19 -97 0
-45 -71 0
-45 -97 0
-71 -97 0
-20 -46 0
-20 -72 0
-20 -98 0
-46 -72 0
-46 -98 0
-72 -98 0
-21 -47 0
-21 -73 0
-21 -99 0
-47 -73 0
-47 -99 0
-73 -99 0
-22 -48 0
-22 -74 0
-22 -100 0
-48 -74 0
-48 -100 0
-74 -100 0
-23 -49 0
-23 -75 0
-23 -101 0
-49 -75 0
-49 -101 0
-75 -101 0
-24 -50 0
-24 -76 0
-24 -102 0
-50 -76 0
-50 -102 0
-76 -102 0
-25 -51 0
-25 -77 0
-25 -103 0
-51 -77 0
-51 -103 0
-77 -103 0
-26 -52 0
-26 -78 0
-26 -104 0
-52 -78 0
-52 -104 0
-78 -104 0
